MARKOV
890
 2 2 2 2 2 2 2 2 2 2 2 2 2 2 2 2 2 2 2 2 2 2 2 2 2 2 2 2 2 2 2 2 2 2 2 2 2 2 2 2 2 2 2 2 2 2 2 2 2 2 2 2 2 2 2 2 2 2 2 2 2 2 2 2 2 2 2 2 2 2 2 2 2 2 2 2 2 2 2 2 2 2 2 2 2 2 2 2 2 2 2 2 2 2 2 2 2 2 2 2 2 2 2 2 2 2 2 2 2 2 2 2 2 2 2 2 2 2 2 2 2 2 2 2 2 2 2 2 2 2 2 2 2 2 2 2 2 2 2 2 2 2 2 2 2 2 2 2 2 2 2 2 2 2 2 2 2 2 2 2 2 2 2 2 2 2 2 2 2 2 2 2 2 2 2 2 2 2 2 2 2 2 2 2 2 2 2 2 2 2 2 2 2 2 2 2 2 2 2 2 2 2 2 2 2 2 2 2 2 2 2 2 2 2 2 2 2 2 2 2 2 2 2 2 2 2 2 2 2 2 2 2 2 2 2 2 2 2 2 2 2 2 2 2 2 2 2 2 2 2 2 2 2 2 2 2 2 2 2 2 2 2 2 2 2 2 2 2 2 2 2 2 2 2 2 2 2 2 2 2 2 2 2 2 2 2 2 2 2 2 2 2 2 2 2 2 2 2 2 2 2 2 2 2 2 2 2 2 2 2 2 2 2 2 2 2 2 2 2 2 2 2 2 2 2 2 2 2 2 2 2 2 2 2 2 2 2 2 2 2 2 2 2 2 2 2 2 2 2 2 2 2 2 2 2 2 2 2 2 2 2 2 2 2 2 2 2 2 2 2 2 2 2 2 2 2 2 2 2 2 2 2 2 2 2 2 2 2 2 2 2 2 2 2 2 2 2 2 2 2 2 2 2 2 2 2 2 2 2 2 2 2 2 2 2 2 2 2 2 2 2 2 2 2 2 2 2 2 2 2 2 2 2 2 2 2 2 2 2 2 2 2 2 2 2 2 2 2 2 2 2 2 2 2 2 2 2 2 2 2 2 2 2 2 2 2 2 2 2 2 2 2 2 2 2 2 2 2 2 2 2 2 2 2 2 2 2 2 2 2 2 2 2 2 2 2 2 2 2 2 2 2 2 2 2 2 2 2 2 2 2 2 2 2 2 2 2 2 2 2 2 2 2 2 2 2 2 2 2 2 2 2 2 2 2 2 2 2 2 2 2 2 2 2 2 2 2 2 2 2 2 2 2 2 2 2 2 2 2 2 2 2 2 2 2 2 2 2 2 2 2 2 2 2 2 2 2 2 2 2 2 2 2 2 2 2 2 2 2 2 2 2 2 2 2 2 2 2 2 2 2 2 2 2 2 2 2 2 2 2 2 2 2 2 2 2 2 2 2 2 2 2 2 2 2 2 2 2 2 2 2 2 2 2 2 2 2 2 2 2 2 2 2 2 2 2 2 2 2 2 2 2 2 2 2 2 2 2 2 2 2 2 2 2 2 2 2 2 2 2 2 2 2 2 2 2 2 2 2 2 2 2 2 2 2 2 2 2 2 2 2 2 2 2 2 2 2 2 2 2 2 2 2 2 2 2 2 2 2 2 2 2 2 2 2 2 2 2 2 2 2 2 2 2 2 2 2 2 2 2 2 2 2 2 2 2 2 2 2 2 2 2 2 2 2 2 2 2 2 2 2 2 2 2 2 2 2 2 2 2 2 2 2 2 2 2 2 2 2 2 2 2 2 2 2 2 2 2 2 2 2 2 2 2 2 2 2 2 2 2 2 2 2 2 2 2 2 2 2 2 2 2 2 2 2 2 2 2 2 2 2 2 2 2 2 2 2 2 2 2 2 2 2 2 2 2 2 2 2 2 2 2 2 2 2 2 2 2 2 2 2 2 2 2 2 2 2 2 2 2 2 2 2 2 2 2 2 2 2 2 2 2 2 2 2 2 2 2 2 2 2 2 2 2 2 2 2 2 2 2 2 2 2 2 2 2 2 2 2 2
895
3	291 303 889 
3	131 888 889 
3	307 887 888 
3	320 886 887 
3	371 885 886 
3	42 884 885 
3	168 883 884 
3	273 882 883 
3	70 881 882 
3	124 880 881 
3	277 879 880 
3	395 878 879 
3	228 877 878 
3	345 876 877 
3	380 875 876 
3	8 874 875 
3	125 873 874 
3	335 872 873 
3	161 871 872 
3	169 870 871 
3	105 869 870 
3	186 868 869 
3	119 867 868 
3	379 866 867 
3	368 865 866 
3	17 864 865 
3	275 863 864 
3	367 862 863 
3	391 861 862 
3	62 860 861 
3	191 859 860 
3	295 858 859 
3	248 857 858 
3	355 856 857 
3	9 855 856 
3	205 854 855 
3	326 853 854 
3	173 852 853 
3	36 851 852 
3	48 850 851 
3	255 849 850 
3	185 848 849 
3	128 847 848 
3	27 846 847 
3	341 845 846 
3	34 844 845 
3	115 843 844 
3	311 842 843 
3	108 841 842 
3	24 840 841 
3	343 839 840 
3	182 838 839 
3	64 837 838 
3	102 836 837 
3	159 835 836 
3	212 834 835 
3	396 833 834 
3	264 832 833 
3	160 831 832 
3	332 830 831 
3	349 829 830 
3	394 828 829 
3	114 827 828 
3	390 826 827 
3	163 825 826 
3	288 824 825 
3	282 823 824 
3	324 822 823 
3	364 821 822 
3	356 820 821 
3	351 819 820 
3	123 818 819 
3	126 817 818 
3	28 816 817 
3	158 815 816 
3	236 814 815 
3	77 813 814 
3	145 812 813 
3	318 811 812 
3	20 810 811 
3	316 809 810 
3	340 808 809 
3	249 807 808 
3	337 806 807 
3	268 805 806 
3	289 804 805 
3	116 803 804 
3	281 802 803 
3	164 801 802 
3	220 800 801 
3	209 799 800 
3	398 798 799 
3	276 797 798 
3	31 796 797 
3	258 795 796 
3	84 794 795 
3	58 793 794 
3	50 792 793 
3	227 791 792 
3	104 790 791 
3	199 789 790 
3	68 788 789 
3	136 787 788 
3	294 786 787 
3	296 785 786 
3	65 784 785 
3	7 783 784 
3	202 782 783 
3	245 781 782 
3	385 780 781 
3	240 779 780 
3	38 778 779 
3	366 777 778 
3	149 776 777 
3	399 775 776 
3	242 774 775 
3	265 773 774 
3	274 772 773 
3	162 771 772 
3	354 770 771 
3	0 769 770 
3	365 768 769 
3	297 767 768 
3	73 766 767 
3	52 765 766 
3	10 764 765 
3	188 763 764 
3	54 762 763 
3	302 761 762 
3	66 760 761 
3	91 759 760 
3	94 758 759 
3	267 757 758 
3	127 756 757 
3	253 755 756 
3	3 754 755 
3	376 753 754 
3	313 752 753 
3	33 751 752 
3	137 750 751 
3	29 749 750 
3	76 748 749 
3	134 747 748 
3	6 746 747 
3	172 745 746 
3	87 744 745 
3	148 743 744 
3	290 742 743 
3	71 741 742 
3	46 740 741 
3	363 739 740 
3	327 738 739 
3	322 737 738 
3	195 736 737 
3	192 735 736 
3	347 734 735 
3	305 733 734 
3	4 732 733 
3	234 731 732 
3	51 730 731 
3	286 729 730 
3	207 728 729 
3	110 727 728 
3	384 726 727 
3	229 725 726 
3	386 724 725 
3	112 723 724 
3	45 722 723 
3	306 721 722 
3	206 720 721 
3	285 719 720 
3	325 718 719 
3	190 717 718 
3	174 716 717 
3	222 715 716 
3	147 714 715 
3	263 713 714 
3	243 712 713 
3	41 711 712 
3	262 710 711 
3	300 709 710 
3	382 708 709 
3	60 707 708 
3	97 706 707 
3	213 705 706 
3	284 704 705 
3	157 703 704 
3	61 702 703 
3	86 701 702 
3	141 700 701 
3	189 699 700 
3	211 698 699 
3	57 697 698 
3	392 696 697 
3	301 695 696 
3	204 694 695 
3	170 693 694 
3	233 692 693 
3	336 691 692 
3	314 690 691 
3	397 689 690 
3	259 688 689 
3	14 687 688 
3	5 686 687 
3	342 685 686 
3	37 684 685 
3	218 683 684 
3	83 682 683 
3	171 681 682 
3	44 680 681 
3	133 679 680 
3	113 678 679 
3	310 677 678 
3	19 676 677 
3	146 675 676 
3	266 674 675 
3	271 673 674 
3	153 672 673 
3	12 671 672 
3	26 670 671 
3	287 669 670 
3	388 668 669 
3	132 667 668 
3	317 666 667 
3	181 665 666 
3	377 664 665 
3	32 663 664 
3	378 662 663 
3	215 661 662 
3	99 660 661 
3	362 659 660 
3	230 658 659 
3	142 657 658 
3	2 656 657 
3	63 655 656 
3	120 654 655 
3	369 653 654 
3	299 652 653 
3	30 651 652 
3	393 650 651 
3	49 649 650 
3	92 648 649 
3	130 647 648 
3	107 646 647 
3	82 645 646 
3	389 644 645 
3	193 643 644 
3	309 642 643 
3	330 641 642 
3	321 640 641 
3	75 639 640 
3	74 638 639 
3	256 637 638 
3	231 636 637 
3	22 635 636 
3	1 634 635 
3	187 633 634 
3	56 632 633 
3	235 631 632 
3	69 630 631 
3	279 629 630 
3	103 628 629 
3	269 627 628 
3	372 626 627 
3	381 625 626 
3	129 624 625 
3	79 623 624 
3	166 622 623 
3	358 621 622 
3	39 620 621 
3	96 619 620 
3	373 618 619 
3	210 617 618 
1	617 
3	0 162 616 
3	338 615 616 
3	397 614 615 
3	292 613 614 
3	160 612 613 
3	175 611 612 
3	66 610 611 
3	237 609 610 
3	163 608 609 
3	45 607 608 
3	353 606 607 
3	263 605 606 
3	72 604 605 
3	172 603 604 
3	261 602 603 
3	335 601 602 
3	323 600 601 
3	224 599 600 
3	161 598 599 
3	247 597 598 
3	388 596 597 
3	239 595 596 
3	316 594 595 
3	383 593 594 
3	159 592 593 
3	210 591 592 
1	591 
3	291 303 590 
3	109 589 590 
3	139 588 589 
3	350 587 588 
3	177 586 587 
3	70 585 586 
3	80 584 585 
3	395 583 584 
3	143 582 583 
3	370 581 582 
3	261 580 581 
3	219 579 580 
3	167 578 579 
3	59 577 578 
3	201 576 577 
3	186 575 576 
3	43 574 575 
3	293 573 574 
3	339 572 573 
3	360 571 572 
3	329 570 571 
3	275 569 570 
3	214 568 569 
3	359 567 568 
3	367 566 567 
3	346 565 566 
3	121 564 565 
3	355 563 564 
3	333 562 563 
3	150 561 562 
3	173 560 561 
3	154 559 560 
3	341 558 559 
3	138 557 558 
3	88 556 557 
3	24 555 556 
3	159 554 555 
3	212 553 554 
3	334 552 553 
3	160 551 552 
3	349 550 551 
3	278 549 550 
3	67 548 549 
3	114 547 548 
3	288 546 547 
3	163 545 546 
3	390 544 545 
3	135 543 544 
3	118 542 543 
3	315 541 542 
3	165 540 541 
3	81 539 540 
3	364 538 539 
3	221 537 538 
3	356 536 537 
3	123 535 536 
3	126 534 535 
3	236 533 534 
3	117 532 533 
3	145 531 532 
3	21 530 531 
3	203 529 530 
3	100 528 529 
3	98 527 528 
3	374 526 527 
3	328 525 526 
3	316 524 525 
3	268 523 524 
3	35 522 523 
3	95 521 522 
3	11 520 521 
3	270 519 520 
3	90 518 519 
3	209 517 518 
3	220 516 517 
3	111 515 516 
3	140 514 515 
3	276 513 514 
3	31 512 513 
3	151 511 512 
3	227 510 511 
3	183 509 510 
3	199 508 509 
3	319 507 508 
3	357 506 507 
3	294 505 506 
3	296 504 505 
3	136 503 504 
3	18 502 503 
3	244 501 502 
3	106 500 501 
3	93 499 500 
3	245 498 499 
3	240 497 498 
3	184 496 497 
3	178 495 496 
3	366 494 495 
3	156 493 494 
3	312 492 493 
3	265 491 492 
3	196 490 491 
3	200 489 490 
3	162 488 489 
3	89 487 488 
3	0 486 487 
3	260 485 486 
3	365 484 485 
3	73 483 484 
3	101 482 483 
3	66 481 482 
3	267 480 481 
3	361 479 480 
3	16 478 479 
3	78 477 478 
3	308 476 477 
3	376 475 476 
3	47 474 475 
3	344 473 474 
3	87 472 473 
3	15 471 472 
3	375 470 471 
3	238 469 470 
3	250 468 469 
3	144 467 468 
3	225 466 467 
3	290 465 466 
3	192 464 465 
3	347 463 464 
3	286 462 463 
3	352 461 462 
3	25 460 461 
3	110 459 460 
3	180 458 459 
3	386 457 458 
3	251 456 457 
3	55 455 456 
3	197 454 455 
3	325 453 454 
3	152 452 453 
3	222 451 452 
3	283 450 451 
3	262 449 450 
3	216 448 449 
3	213 447 448 
3	232 446 447 
3	194 445 446 
3	122 444 445 
3	387 443 444 
3	280 442 443 
3	348 441 442 
3	57 440 441 
3	301 439 440 
3	176 438 439 
3	331 437 438 
3	198 436 437 
3	226 435 436 
3	397 434 435 
3	298 433 434 
3	5 432 433 
3	37 431 432 
3	53 430 431 
3	44 429 430 
3	155 428 429 
3	272 427 428 
3	223 426 427 
3	271 425 426 
3	26 424 425 
3	257 423 424 
3	388 422 423 
3	317 421 422 
3	32 420 421 
3	252 419 420 
3	246 418 419 
3	215 417 418 
3	179 416 417 
3	393 415 416 
3	208 414 415 
3	130 413 414 
3	82 412 413 
3	74 411 412 
3	304 410 411 
3	23 409 410 
3	22 408 409 
3	13 407 408 
3	85 406 407 
3	40 405 406 
3	241 404 405 
3	254 403 404 
3	96 402 403 
3	217 401 402 
1	401 
3	323 335 400 
1	400 
1	175 
1	109 
1	42 
1	168 
1	350 
1	70 
1	277 
1	228 
1	380 
1	143 
1	125 
1	161 
1	105 
1	169 
1	59 
1	186 
1	293 
1	368 
1	360 
1	367 
1	214 
1	346 
1	62 
1	391 
1	295 
1	248 
1	205 
1	36 
1	255 
1	185 
1	128 
1	138 
1	323 
1	108 
1	24 
1	343 
1	383 
1	102 
1	159 
1	212 
1	396 
1	264 
1	160 
1	278 
1	394 
1	114 
1	288 
1	165 
1	324 
1	364 
1	356 
1	221 
1	158 
1	236 
1	77 
1	117 
1	21 
1	318 
1	98 
1	239 
1	249 
1	337 
1	116 
1	35 
1	95 
1	270 
1	220 
1	398 
1	140 
1	151 
1	58 
1	227 
1	199 
1	183 
1	319 
1	294 
1	106 
1	7 
1	202 
1	240 
1	149 
1	399 
1	196 
1	354 
1	89 
1	260 
1	297 
1	365 
1	73 
1	10 
1	52 
1	101 
1	302 
1	54 
1	66 
1	94 
1	16 
1	3 
1	253 
1	78 
1	313 
1	33 
1	47 
1	72 
1	344 
1	134 
1	87 
1	375 
1	148 
1	238 
1	225 
1	71 
1	46 
1	327 
1	322 
1	195 
1	192 
1	305 
1	347 
1	51 
1	207 
1	237 
1	180 
1	229 
1	386 
1	112 
1	251 
1	306 
1	285 
1	55 
1	152 
1	263 
1	283 
1	243 
1	262 
1	382 
1	60 
1	232 
1	61 
1	86 
1	211 
1	301 
1	204 
1	170 
1	176 
1	331 
1	198 
1	336 
1	226 
1	298 
1	259 
1	14 
1	5 
1	342 
1	37 
1	53 
1	218 
1	83 
1	171 
1	44 
1	155 
1	133 
1	310 
1	19 
1	146 
1	266 
1	12 
1	26 
1	287 
1	257 
1	388 
1	132 
1	181 
1	32 
1	252 
1	246 
1	378 
1	362 
1	142 
1	2 
1	63 
1	369 
1	338 
1	30 
1	179 
1	49 
1	92 
1	130 
1	107 
1	82 
1	193 
1	309 
1	75 
1	74 
1	304 
1	256 
1	23 
1	13 
1	187 
1	85 
1	235 
1	279 
1	103 
1	40 
1	39 
1	96 
1	217 
1	210 
1	291 
1	303 
1	131 
1	307 
1	320 
1	371 
1	139 
1	273 
1	177 
1	124 
1	80 
1	395 
1	345 
1	8 
1	370 
1	261 
1	219 
1	335 
1	167 
1	201 
1	43 
1	119 
1	339 
1	379 
1	17 
1	329 
1	275 
1	292 
1	359 
1	121 
1	191 
1	355 
1	333 
1	150 
1	326 
1	9 
1	173 
1	48 
1	27 
1	154 
1	341 
1	34 
1	115 
1	311 
1	224 
1	88 
1	182 
1	64 
1	334 
1	332 
1	349 
1	67 
1	390 
1	163 
1	135 
1	118 
1	315 
1	282 
1	81 
1	351 
1	123 
1	126 
1	28 
1	145 
1	247 
1	203 
1	100 
1	374 
1	20 
1	328 
1	316 
1	340 
1	268 
1	289 
1	11 
1	281 
1	164 
1	90 
1	209 
1	111 
1	276 
1	31 
1	84 
1	258 
1	50 
1	104 
1	68 
1	357 
1	353 
1	296 
1	136 
1	18 
1	244 
1	65 
1	93 
1	245 
1	38 
1	385 
1	184 
1	366 
1	178 
1	242 
1	156 
1	312 
1	265 
1	274 
1	162 
1	200 
1	0 
1	188 
1	91 
1	267 
1	361 
1	127 
1	308 
1	376 
1	137 
1	29 
1	76 
1	6 
1	172 
1	15 
1	250 
1	144 
1	290 
1	363 
1	4 
1	286 
1	234 
1	352 
1	25 
1	110 
1	384 
1	45 
1	206 
1	197 
1	325 
1	190 
1	222 
1	174 
1	147 
1	41 
1	300 
1	97 
1	216 
1	284 
1	213 
1	157 
1	194 
1	122 
1	387 
1	280 
1	348 
1	141 
1	189 
1	57 
1	392 
1	233 
1	314 
1	397 
1	113 
1	272 
1	223 
1	271 
1	153 
1	317 
1	377 
1	215 
1	99 
1	230 
1	120 
1	299 
1	393 
1	208 
1	389 
1	330 
1	321 
1	231 
1	22 
1	1 
1	56 
1	69 
1	269 
1	372 
1	381 
1	129 
1	241 
1	79 
1	254 
1	166 
1	358 
1	373 
0	

8
 1 0 0.89 0.11 0.8 0.2 0.712 0.288
8
 1 0 0 1 0.2 0 0.8 1
8
 1 0 0 1 0.89 0 0.11 1
8
 1 0 0 1 0.9 0 0.1 1
8
 1 0 0 1 0 0 1 1
8
 1 0 0 1 0.9 0 0.1 1
8
 1 0 0 1 0.89 0 0.11 1
8
 1 0 0 1 0.9 0 0.1 1
8
 1 0 0 1 0.9 0 0.1 1
8
 1 0 0 1 0.89 0 0.11 1
8
 1 0 0 1 0.9 0 0.1 1
8
 1 0 0 1 0.09 0 0.91 1
8
 1 0 0 1 0.89 0 0.11 1
8
 1 0 0 1 0.45 0 0.55 1
8
 1 0 0 1 0.01 0 0.99 1
8
 1 0 0 1 0.9 0 0.1 1
8
 1 0 0 1 0.67 0 0.33 1
8
 1 0 0 1 0.1 0 0.9 1
8
 1 0 0 1 0.9 0 0.1 1
8
 1 0 0 1 0.98 0 0.02 1
8
 1 0 0 1 0.9 0 0.1 1
8
 1 0 0 1 0.5 0 0.5 1
8
 1 0 0 1 0.9 0 0.1 1
8
 1 0 0 1 0.9 0 0.1 1
8
 1 0 0 1 0.9 0 0.1 1
8
 1 0 0 1 0.5 0 0.5 1
8
 1 0 0 1 0.89 0 0.11 1
8
 1 0 0 1 0 0 1 1
8
 1 0 0 1 0.9 0 0.1 1
8
 1 0 0 1 0.9 0 0.1 1
8
 1 0 0 1 0.8 0 0.2 1
8
 1 0 0 1 0.7 0 0.3 1
8
 1 0 0 1 0.89 0 0.11 1
8
 1 0 0 1 0.9 0 0.1 1
8
 1 0 0 1 0.9 0 0.1 1
8
 1 0 0 1 0.9 0 0.1 1
8
 1 0 0 1 0.9 0 0.1 1
8
 1 0 0 1 0.9 0 0.1 1
8
 1 0 0 1 0.9 0 0.1 1
8
 1 0 0 1 0.9 0 0.1 1
8
 1 0 0 1 0.98 0 0.02 1
8
 1 0 0 1 0.9 0 0.1 1
8
 1 0 0 1 0.5 0 0.5 1
8
 1 0 0 1 0.9 0 0.1 1
8
 1 0 0 1 0.5 0 0.5 1
8
 1 0 0 1 0.5 0 0.5 1
8
 1 0 0 1 0.9 0 0.1 1
8
 1 0 0 1 0.4 0 0.6 1
8
 1 0 0 1 0.9 0 0.1 1
8
 1 0 0 1 0.5 0 0.5 1
8
 1 0 0 1 0.5 0 0.5 1
8
 1 0 0 1 0.9 0 0.1 1
8
 1 0 0 1 0.8 0 0.2 1
8
 1 0 0 1 0.2 0 0.8 1
8
 1 0 0 1 0.9 0 0.1 1
8
 1 0 0 1 0.5 0 0.5 1
8
 1 0 0 1 0.9 0 0.1 1
8
 1 0 0 1 0.59 0 0.41 1
8
 1 0 0 1 0.9 0 0.1 1
8
 1 0 0 1 0.9 0 0.1 1
8
 1 0 0 1 0.69 0 0.31 1
8
 1 0 0 1 0.9 0 0.1 1
8
 1 0 0 1 0.5 0 0.5 1
8
 1 0 0 1 0.69 0 0.31 1
8
 1 0 0 1 0.9 0 0.1 1
8
 1 0 0 1 0.5 0 0.5 1
8
 1 0 0 1 0.9 0 0.1 1
8
 1 0 0 1 0.9 0 0.1 1
8
 1 0 0 1 0.89 0 0.11 1
8
 1 0 0 1 0.1 0 0.9 1
8
 1 0 0 1 0.5 0 0.5 1
8
 1 0 0 1 0.5 0 0.5 1
8
 1 0 0 1 0.64 0 0.36 1
8
 1 0 0 1 0.9 0 0.1 1
8
 1 0 0 1 0.9 0 0.1 1
8
 1 0 0 1 0.89 0 0.11 1
8
 1 0 0 1 0.89 0 0.11 1
8
 1 0 0 1 0.7 0 0.3 1
8
 1 0 0 1 0.9 0 0.1 1
8
 1 0 0 1 0 0 1 1
8
 1 0 0 1 0.5 0 0.5 1
8
 1 0 0 1 0.5 0 0.5 1
8
 1 0 0 1 0.5 0 0.5 1
8
 1 0 0 1 0.9 0 0.1 1
8
 1 0 0 1 0.01 0 0.99 1
8
 1 0 0 1 0.1 0 0.9 1
8
 1 0 0 1 0.9 0 0.1 1
8
 1 0 0 1 0.9 0 0.1 1
8
 1 0 0 1 0.01 0 0.99 1
8
 1 0 0 1 0.3 0 0.7 1
8
 1 0 0 1 0.9 0 0.1 1
8
 1 0 0 1 0.89 0 0.11 1
8
 1 0 0 1 0.89 0 0.11 1
8
 1 0 0 1 0.5 0 0.5 1
8
 1 0 0 1 0.9 0 0.1 1
8
 1 0 0 1 0.9 0 0.1 1
8
 1 0 0 1 0.9 0 0.1 1
8
 1 0 0 1 0.5 0 0.5 1
8
 1 0 0 1 0 0 1 1
8
 1 0 0 1 0.9 0 0.1 1
8
 1 0 0 1 0 0 1 1
8
 1 0 0 1 0.9 0 0.1 1
8
 1 0 0 1 0.4 0 0.6 1
8
 1 0 0 1 0.5 0 0.5 1
8
 1 0 0 1 0.7 0 0.3 1
8
 1 0 0 1 0.9 0 0.1 1
8
 1 0 0 1 0.9 0 0.1 1
8
 1 0 0 1 0.9 0 0.1 1
8
 1 0 0 1 0 0 1 1
8
 1 0 0 1 0.29 0 0.71 1
8
 1 0 0 1 0.5 0 0.5 1
8
 1 0 0 1 0.9 0 0.1 1
8
 1 0 0 1 0.1 0 0.9 1
8
 1 0 0 1 0.7 0 0.3 1
8
 1 0 0 1 0.01 0 0.99 1
8
 1 0 0 1 0.9 0 0.1 1
8
 1 0 0 1 0.6 0 0.4 1
8
 1 0 0 1 0.9 0 0.1 1
8
 1 0 0 1 0.9 0 0.1 1
8
 1 0 0 1 0.9 0 0.1 1
8
 1 0 0 1 0.78 0 0.22 1
8
 1 0 0 1 0.9 0 0.1 1
8
 1 0 0 1 0.9 0 0.1 1
8
 1 0 0 1 0.5 0 0.5 1
8
 1 0 0 1 0.89 0 0.11 1
8
 1 0 0 1 0.9 0 0.1 1
8
 1 0 0 1 0.9 0 0.1 1
8
 1 0 0 1 0.9 0 0.1 1
8
 1 0 0 1 0.89 0 0.11 1
8
 1 0 0 1 0.5 0 0.5 1
8
 1 0 0 1 0.9 0 0.1 1
8
 1 0 0 1 0 0 1 1
8
 1 0 0 1 0.5 0 0.5 1
8
 1 0 0 1 0.9 0 0.1 1
8
 1 0 0 1 0.9 0 0.1 1
8
 1 0 0 1 0.5 0 0.5 1
8
 1 0 0 1 0.69 0 0.31 1
8
 1 0 0 1 0.9 0 0.1 1
8
 1 0 0 1 0.9 0 0.1 1
8
 1 0 0 1 0.9 0 0.1 1
8
 1 0 0 1 0 0 1 1
8
 1 0 0 1 0.89 0 0.11 1
8
 1 0 0 1 0.9 0 0.1 1
8
 1 0 0 1 0.9 0 0.1 1
8
 1 0 0 1 0.6 0 0.4 1
8
 1 0 0 1 0.9 0 0.1 1
8
 1 0 0 1 0.9 0 0.1 1
8
 1 0 0 1 0.5 0 0.5 1
8
 1 0 0 1 0.9 0 0.1 1
8
 1 0 0 1 0.8 0 0.2 1
8
 1 0 0 1 0.9 0 0.1 1
8
 1 0 0 1 0.9 0 0.1 1
8
 1 0 0 1 0.9 0 0.1 1
8
 1 0 0 1 0.9 0 0.1 1
8
 1 0 0 1 0.5 0 0.5 1
8
 1 0 0 1 0.5 0 0.5 1
8
 1 0 0 1 0.9 0 0.1 1
8
 1 0 0 1 0.9 0 0.1 1
8
 1 0 0 1 0.9 0 0.1 1
8
 1 0 0 1 0.9 0 0.1 1
8
 1 0 0 1 0.5 0 0.5 1
8
 1 0 0 1 0.89 0 0.11 1
8
 1 0 0 1 0.5 0 0.5 1
8
 1 0 0 1 0.67 0 0.33 1
8
 1 0 0 1 0.9 0 0.1 1
8
 1 0 0 1 0.8 0 0.2 1
8
 1 0 0 1 0.95 0 0.05 1
8
 1 0 0 1 0.9 0 0.1 1
8
 1 0 0 1 0.8 0 0.2 1
8
 1 0 0 1 0.9 0 0.1 1
8
 1 0 0 1 0.89 0 0.11 1
8
 1 0 0 1 0.9 0 0.1 1
8
 1 0 0 1 0.9 0 0.1 1
8
 1 0 0 1 0.9 0 0.1 1
8
 1 0 0 1 0.9 0 0.1 1
8
 1 0 0 1 0.9 0 0.1 1
8
 1 0 0 1 0.9 0 0.1 1
8
 1 0 0 1 0.9 0 0.1 1
8
 1 0 0 1 0.89 0 0.11 1
8
 1 0 0 1 0.5 0 0.5 1
8
 1 0 0 1 0.7 0 0.3 1
8
 1 0 0 1 0.5 0 0.5 1
8
 1 0 0 1 0.9 0 0.1 1
8
 1 0 0 1 0.9 0 0.1 1
8
 1 0 0 1 0.9 0 0.1 1
8
 1 0 0 1 0.9 0 0.1 1
8
 1 0 0 1 0.9 0 0.1 1
8
 1 0 0 1 0.9 0 0.1 1
8
 1 0 0 1 0.9 0 0.1 1
8
 1 0 0 1 0.9 0 0.1 1
8
 1 0 0 1 0.8 0 0.2 1
8
 1 0 0 1 0.5 0 0.5 1
8
 1 0 0 1 0.5 0 0.5 1
8
 1 0 0 1 0.9 0 0.1 1
8
 1 0 0 1 0.8 0 0.2 1
8
 1 0 0 1 0.9 0 0.1 1
8
 1 0 0 1 0.3 0 0.7 1
8
 1 0 0 1 0.9 0 0.1 1
8
 1 0 0 1 0.9 0 0.1 1
8
 1 0 0 1 0.9 0 0.1 1
8
 1 0 0 1 0.6 0 0.4 1
8
 1 0 0 1 0.9 0 0.1 1
8
 1 0 0 1 0.9 0 0.1 1
8
 1 0 0 1 0.5 0 0.5 1
8
 1 0 0 1 0 0 1 1
8
 1 0 0 1 0.9 0 0.1 1
8
 1 0 0 1 0.9 0 0.1 1
8
 1 0 0 1 0.7 0 0.3 1
8
 1 0 0 1 0.9 0 0.1 1
8
 1 0 0 1 0.9 0 0.1 1
8
 1 0 0 1 0.9 0 0.1 1
8
 1 0 0 1 0.9 0 0.1 1
8
 1 0 0 1 0.9 0 0.1 1
8
 1 0 0 1 0 0 1 1
8
 1 0 0 1 0.67 0 0.33 1
8
 1 0 0 1 0.67 0 0.33 1
8
 1 0 0 1 0.89 0 0.11 1
8
 1 0 0 1 0.9 0 0.1 1
8
 1 0 0 1 0.9 0 0.1 1
8
 1 0 0 1 0.69 0 0.31 1
8
 1 0 0 1 0.7 0 0.3 1
8
 1 0 0 1 0.9 0 0.1 1
8
 1 0 0 1 0.5 0 0.5 1
8
 1 0 0 1 0.5 0 0.5 1
8
 1 0 0 1 0.7 0 0.3 1
8
 1 0 0 1 0.5 0 0.5 1
8
 1 0 0 1 0 0 1 1
8
 1 0 0 1 0.8 0 0.2 1
8
 1 0 0 1 0.9 0 0.1 1
8
 1 0 0 1 0.9 0 0.1 1
8
 1 0 0 1 0.9 0 0.1 1
8
 1 0 0 1 0.5 0 0.5 1
8
 1 0 0 1 0.9 0 0.1 1
8
 1 0 0 1 0.5 0 0.5 1
8
 1 0 0 1 0.05 0 0.95 1
8
 1 0 0 1 0.5 0 0.5 1
8
 1 0 0 1 0.9 0 0.1 1
8
 1 0 0 1 0.89 0 0.11 1
8
 1 0 0 1 0.8 0 0.2 1
8
 1 0 0 1 0.9 0 0.1 1
8
 1 0 0 1 0.9 0 0.1 1
8
 1 0 0 1 0.89 0 0.11 1
8
 1 0 0 1 0.1 0 0.9 1
8
 1 0 0 1 0.9 0 0.1 1
8
 1 0 0 1 0.5 0 0.5 1
8
 1 0 0 1 0.95 0 0.05 1
8
 1 0 0 1 0.9 0 0.1 1
8
 1 0 0 1 0.89 0 0.11 1
8
 1 0 0 1 0.89 0 0.11 1
8
 1 0 0 1 0.9 0 0.1 1
8
 1 0 0 1 0.9 0 0.1 1
8
 1 0 0 1 0.5 0 0.5 1
8
 1 0 0 1 0.85 0 0.15 1
8
 1 0 0 1 0.9 0 0.1 1
8
 1 0 0 1 0.89 0 0.11 1
8
 1 0 0 1 0.9 0 0.1 1
8
 1 0 0 1 0.5 0 0.5 1
8
 1 0 0 1 0.5 0 0.5 1
8
 1 0 0 1 0.9 0 0.1 1
8
 1 0 0 1 0.9 0 0.1 1
8
 1 0 0 1 0.9 0 0.1 1
8
 1 0 0 1 0.7 0 0.3 1
8
 1 0 0 1 0.9 0 0.1 1
8
 1 0 0 1 0.9 0 0.1 1
8
 1 0 0 1 0.9 0 0.1 1
8
 1 0 0 1 0.2 0 0.8 1
8
 1 0 0 1 0.9 0 0.1 1
8
 1 0 0 1 0.89 0 0.11 1
8
 1 0 0 1 0.5 0 0.5 1
8
 1 0 0 1 0.5 0 0.5 1
8
 1 0 0 1 0.9 0 0.1 1
8
 1 0 0 1 0.67 0 0.33 1
8
 1 0 0 1 0.4 0 0.6 1
2
 0.03 1
8
 1 0 0.4 0.6 0.6 0.4 0.24 0.76
8
 1 0 0 1 0.02 0 0.98 1
8
 1 0 0 1 0.6 0 0.4 1
8
 1 0 0 1 0 0 1 1
8
 1 0 0 1 0.4 0 0.6 1
8
 1 0 0 1 0.5 0 0.5 1
8
 1 0 0 1 0.5 0 0.5 1
8
 1 0 0 1 0.89 0 0.11 1
8
 1 0 0 1 0.4 0 0.6 1
8
 1 0 0 1 0.4 0 0.6 1
8
 1 0 0 1 0.02 0 0.98 1
8
 1 0 0 1 0.4 0 0.6 1
8
 1 0 0 1 0.4 0 0.6 1
8
 1 0 0 1 0.4 0 0.6 1
8
 1 0 0 1 0.89 0 0.11 1
8
 1 0 0 1 0.1 0 0.9 1
8
 1 0 0 1 0.05 0 0.95 1
8
 1 0 0 1 0.02 0 0.98 1
8
 1 0 0 1 0.4 0 0.6 1
8
 1 0 0 1 0.01 0 0.99 1
8
 1 0 0 1 0.4 0 0.6 1
8
 1 0 0 1 0 0 1 1
8
 1 0 0 1 0.4 0 0.6 1
8
 1 0 0 1 0.05 0 0.95 1
8
 1 0 0 1 0.4 0 0.6 1
8
 1 0 0 1 0.1 0 0.9 1
2
 0.03 1
8
 1 0 0 1 0.9 0.1 0 1
8
 1 0 0 1 0.2 0 0.8 1
8
 1 0 0 1 0.4 0 0.6 1
8
 1 0 0 1 0.5 0 0.5 1
8
 1 0 0 1 0 0 1 1
8
 1 0 0 1 0.9 0 0.1 1
8
 1 0 0 1 0.5 0 0.5 1
8
 1 0 0 1 0.89 0 0.11 1
8
 1 0 0 1 0.5 0 0.5 1
8
 1 0 0 1 0 0 1 1
8
 1 0 0 1 0.89 0 0.11 1
8
 1 0 0 1 0.5 0 0.5 1
8
 1 0 0 1 0.2 0 0.8 1
8
 1 0 0 1 0.4 0 0.6 1
8
 1 0 0 1 0.1 0 0.9 1
8
 1 0 0 1 0.5 0 0.5 1
8
 1 0 0 1 0.5 0 0.5 1
8
 1 0 0 1 0.1 0 0.9 1
8
 1 0 0 1 0 0 1 1
8
 1 0 0 1 0.5 0 0.5 1
8
 1 0 0 1 0.01 0 0.99 1
8
 1 0 0 1 0 0 1 1
8
 1 0 0 1 0 0 1 1
8
 1 0 0 1 0 0 1 1
8
 1 0 0 1 0 0 1 1
8
 1 0 0 1 0.5 0 0.5 1
8
 1 0 0 1 0.9 0 0.1 1
8
 1 0 0 1 0.5 0 0.5 1
8
 1 0 0 1 0 0 1 1
8
 1 0 0 1 0.5 0 0.5 1
8
 1 0 0 1 0.9 0 0.1 1
8
 1 0 0 1 0.5 0 0.5 1
8
 1 0 0 1 0.1 0 0.9 1
8
 1 0 0 1 0 0 1 1
8
 1 0 0 1 0.1 0 0.9 1
8
 1 0 0 1 0.5 0 0.5 1
8
 1 0 0 1 0.9 0 0.1 1
8
 1 0 0 1 0.5 0 0.5 1
8
 1 0 0 1 0.5 0 0.5 1
8
 1 0 0 1 0.9 0 0.1 1
8
 1 0 0 1 0.09 0 0.91 1
8
 1 0 0 1 0.5 0 0.5 1
8
 1 0 0 1 0.1 0 0.9 1
8
 1 0 0 1 0.5 0 0.5 1
8
 1 0 0 1 0.5 0 0.5 1
8
 1 0 0 1 0.9 0 0.1 1
8
 1 0 0 1 0.09 0 0.91 1
8
 1 0 0 1 0.5 0 0.5 1
8
 1 0 0 1 0.5 0 0.5 1
8
 1 0 0 1 0 0 1 1
8
 1 0 0 1 0 0 1 1
8
 1 0 0 1 0.5 0 0.5 1
8
 1 0 0 1 0 0 1 1
8
 1 0 0 1 0.5 0 0.5 1
8
 1 0 0 1 0.1 0 0.9 1
8
 1 0 0 1 0.5 0 0.5 1
8
 1 0 0 1 0.57 0 0.43 1
8
 1 0 0 1 0 0 1 1
8
 1 0 0 1 0 0 1 1
8
 1 0 0 1 0 0 1 1
8
 1 0 0 1 0.5 0 0.5 1
8
 1 0 0 1 0.5 0 0.5 1
8
 1 0 0 1 0.9 0 0.1 1
8
 1 0 0 1 0 0 1 1
8
 1 0 0 1 0.5 0 0.5 1
8
 1 0 0 1 0.1 0 0.9 1
8
 1 0 0 1 0.5 0 0.5 1
8
 1 0 0 1 0.1 0 0.9 1
8
 1 0 0 1 0.5 0 0.5 1
8
 1 0 0 1 0.4 0 0.6 1
8
 1 0 0 1 0.5 0 0.5 1
8
 1 0 0 1 0 0 1 1
8
 1 0 0 1 0.5 0 0.5 1
8
 1 0 0 1 0.9 0 0.1 1
8
 1 0 0 1 0 0 1 1
8
 1 0 0 1 0.5 0 0.5 1
8
 1 0 0 1 0 0 1 1
8
 1 0 0 1 0.89 0 0.11 1
8
 1 0 0 1 0.5 0 0.5 1
8
 1 0 0 1 0.5 0 0.5 1
8
 1 0 0 1 0 0 1 1
8
 1 0 0 1 0.5 0 0.5 1
8
 1 0 0 1 0 0 1 1
8
 1 0 0 1 0.4 0 0.6 1
8
 1 0 0 1 0.5 0 0.5 1
8
 1 0 0 1 0 0 1 1
8
 1 0 0 1 0 0 1 1
8
 1 0 0 1 0.1 0 0.9 1
8
 1 0 0 1 0.6 0 0.4 1
8
 1 0 0 1 0.5 0 0.5 1
8
 1 0 0 1 0.1 0 0.9 1
8
 1 0 0 1 0.4 0 0.6 1
8
 1 0 0 1 0 0 1 1
8
 1 0 0 1 0.5 0 0.5 1
8
 1 0 0 1 0 0 1 1
8
 1 0 0 1 0 0 1 1
8
 1 0 0 1 0.1 0 0.9 1
8
 1 0 0 1 0.59 0 0.41 1
8
 1 0 0 1 0 0 1 1
8
 1 0 0 1 0.4 0 0.6 1
8
 1 0 0 1 0 0 1 1
8
 1 0 0 1 0.5 0 0.5 1
8
 1 0 0 1 0.9 0 0.1 1
8
 1 0 0 1 0.5 0 0.5 1
8
 1 0 0 1 0 0 1 1
8
 1 0 0 1 0 0 1 1
8
 1 0 0 1 0.9 0 0.1 1
8
 1 0 0 1 0.6 0 0.4 1
8
 1 0 0 1 0.4 0 0.6 1
8
 1 0 0 1 0.5 0 0.5 1
8
 1 0 0 1 0.1 0 0.9 1
8
 1 0 0 1 0.4 0 0.6 1
8
 1 0 0 1 0 0 1 1
8
 1 0 0 1 0 0 1 1
8
 1 0 0 1 0.5 0 0.5 1
8
 1 0 0 1 0.09 0 0.91 1
8
 1 0 0 1 0 0 1 1
8
 1 0 0 1 0 0 1 1
8
 1 0 0 1 0.5 0 0.5 1
8
 1 0 0 1 0 0 1 1
8
 1 0 0 1 0 0 1 1
8
 1 0 0 1 0.89 0 0.11 1
8
 1 0 0 1 0 0 1 1
8
 1 0 0 1 0 0 1 1
8
 1 0 0 1 0 0 1 1
8
 1 0 0 1 0.5 0 0.5 1
8
 1 0 0 1 0.5 0 0.5 1
8
 1 0 0 1 0.5 0 0.5 1
8
 1 0 0 1 0.5 0 0.5 1
8
 1 0 0 1 0.5 0 0.5 1
8
 1 0 0 1 0 0 1 1
8
 1 0 0 1 0.5 0 0.5 1
8
 1 0 0 1 0.4 0 0.6 1
8
 1 0 0 1 0.7 0 0.3 1
8
 1 0 0 1 0.5 0 0.5 1
8
 1 0 0 1 0.89 0 0.11 1
8
 1 0 0 1 0.5 0 0.5 1
8
 1 0 0 1 0.9 0 0.1 1
8
 1 0 0 1 0 0 1 1
8
 1 0 0 1 0.9 0 0.1 1
8
 1 0 0 1 0.5 0 0.5 1
8
 1 0 0 1 0.5 0 0.5 1
8
 1 0 0 1 0 0 1 1
8
 1 0 0 1 0.75 0 0.25 1
8
 1 0 0 1 0 0 1 1
8
 1 0 0 1 0.09 0 0.91 1
8
 1 0 0 1 0.5 0 0.5 1
8
 1 0 0 1 0 0 1 1
8
 1 0 0 1 0.5 0 0.5 1
8
 1 0 0 1 0 0 1 1
8
 1 0 0 1 0 0 1 1
8
 1 0 0 1 0.9 0 0.1 1
8
 1 0 0 1 0.7 0 0.3 1
8
 1 0 0 1 0.4 0 0.6 1
8
 1 0 0 1 0.1 0 0.9 1
8
 1 0 0 1 0 0 1 1
8
 1 0 0 1 0.6 0 0.4 1
8
 1 0 0 1 0.5 0 0.5 1
8
 1 0 0 1 0.4 0 0.6 1
8
 1 0 0 1 0.9 0 0.1 1
8
 1 0 0 1 0.5 0 0.5 1
8
 1 0 0 1 0.9 0 0.1 1
8
 1 0 0 1 0 0 1 1
8
 1 0 0 1 0 0 1 1
8
 1 0 0 1 0 0 1 1
8
 1 0 0 1 0 0 1 1
8
 1 0 0 1 0.09 0 0.91 1
8
 1 0 0 1 0 0 1 1
8
 1 0 0 1 0.9 0 0.1 1
8
 1 0 0 1 0.5 0 0.5 1
8
 1 0 0 1 0 0 1 1
8
 1 0 0 1 0 0 1 1
8
 1 0 0 1 0 0 1 1
8
 1 0 0 1 0.9 0 0.1 1
8
 1 0 0 1 0 0 1 1
8
 1 0 0 1 0.9 0 0.1 1
8
 1 0 0 1 0 0 1 1
8
 1 0 0 1 0.05 0 0.95 1
8
 1 0 0 1 0.5 0 0.5 1
8
 1 0 0 1 0.5 0 0.5 1
8
 1 0 0 1 0 0 1 1
8
 1 0 0 1 0.5 0 0.5 1
8
 1 0 0 1 0 0 1 1
8
 1 0 0 1 0.1 0 0.9 1
8
 1 0 0 1 0 0 1 1
8
 1 0 0 1 0.5 0 0.5 1
8
 1 0 0 1 0 0 1 1
8
 1 0 0 1 0 0 1 1
8
 1 0 0 1 0.9 0 0.1 1
8
 1 0 0 1 0.01 0 0.99 1
2
 0.03 1
8
 1 0 0.1 0.9 0.09 0.91 0.009 0.991
2
 0.03 1
2
 0.9999 0.0001
2
 0.99999 1e-05
2
 1 8e-08
2
 0.9999 0.0001
2
 0.99999 1e-05
2
 0.99975 0.00025
2
 0.999993 7e-06
2
 0.9999 0.0001
2
 1 4e-08
2
 0.99999 1e-05
2
 0.999999 1.4e-06
2
 0.9999 0.0001
2
 0.999977 2.342e-05
2
 0.9999 0.0001
2
 0.9999 0.0001
2
 0.99989 0.00011
2
 0.9999 0.0001
2
 1 1e-08
2
 0.99998 2e-05
2
 0.99999 1e-05
2
 0.99995 5e-05
2
 0.99974 0.00026
2
 0.9993 0.0007
2
 0.99988 0.00012
2
 1 1.1e-07
2
 0.9999 0.0001
2
 0.999996 3.64e-06
2
 0.999999 1.448e-06
2
 0.9998 0.0002
2
 0.999999 1.26e-06
2
 0.99998 2e-05
2
 0.99998 2e-05
2
 0.9998 0.0002
2
 1 1e-08
2
 0.9999 0.0001
2
 0.9999 0.0001
2
 0.9999 0.0001
2
 1 1e-08
2
 0.99992 8e-05
2
 0.9999 0.0001
2
 0.99989 0.00011
2
 0.99989 0.00011
2
 0.9996 0.0004
2
 0.99995 5e-05
2
 1 6e-08
2
 0.9995 0.0005
2
 0.99999 1e-05
2
 0.9999 0.0001
2
 0.999999 1e-06
2
 0.9999 0.0001
2
 0.9999 0.0001
2
 0.99995 5e-05
2
 0.99991 9e-05
2
 0.9996 0.0004
2
 0.9999 0.0001
2
 0.99998 2e-05
2
 0.99999 1e-05
2
 0.99986 0.00014
2
 0.9999 0.0001
2
 0.999999 1e-06
2
 0.99995 5e-05
2
 0.99995 5e-05
2
 0.999999 6.9e-07
2
 0.9991 0.0009
2
 0.9998 0.0002
2
 0.9998 0.0002
2
 0.99996 4e-05
2
 0.9999 0.0001
2
 0.99998 2e-05
2
 0.9999 0.0001
2
 0.999989 1.08e-05
2
 0.99998 2e-05
2
 0.99998 2e-05
2
 0.9997 0.0003
2
 0.9999 0.0001
2
 0.99993 7e-05
2
 0.9999 0.0001
2
 0.99991 9e-05
2
 1 3.6e-07
2
 0.9999 0.0001
2
 1 1e-08
2
 1 4e-08
2
 0.9999 0.0001
2
 0.999999 6.6e-07
2
 0.9999 0.0001
2
 0.9999 0.0001
2
 1 1.7e-07
2
 0.999977 2.291e-05
2
 0.9996 0.0004
2
 0.999999 1.2e-06
2
 0.9999 0.0001
2
 0.998 0.002
2
 0.9999 0.0001
2
 0.999981 1.92e-05
2
 0.99989 0.00011
2
 0.99998 2e-05
2
 0.999 0.001
2
 0.9998 0.0002
2
 0.9995 0.0005
2
 0.99975 0.00025
2
 0.999999 1e-06
2
 0.99998 2.003e-05
2
 0.9985 0.0015
2
 0.9999 0.0001
2
 0.99987 0.00013
2
 0.9997 0.0003
2
 0.9995 0.0005
2
 0.99995 5e-05
2
 1 1e-08
2
 0.99999 1e-05
2
 0.9999 0.0001
2
 1 2.8e-07
2
 0.999991 8.59e-06
2
 0.99995 5e-05
2
 1 1e-08
2
 0.999999 1e-06
2
 0.99995 5e-05
2
 0.9991 0.0009
2
 0.9999 0.0001
2
 1 1e-08
2
 0.9999 0.0001
2
 0.9999 0.0001
2
 0.999996 4e-06
2
 0.999958 4.19e-05
2
 1 1.6e-07
2
 0.9999 0.0001
2
 0.9999 0.0001
2
 0.99962 0.00038
2
 0.9999 0.0001
2
 0.9999 0.0001
2
 0.9999 0.0001
2
 0.99989 0.00011
2
 0.9999 0.0001
2
 0.9999 0.0001
2
 0.999969 3.12e-05
2
 0.99989 0.00011
2
 0.999999 5.9e-07
2
 0.9999 0.0001
2
 1 5e-08
2
 0.999982 1.82e-05
2
 0.9999 0.0001
2
 0.99999 1e-05
2
 1 1.4e-07
2
 0.999953 4.733e-05
2
 0.9998 0.0002
2
 0.9999 0.0001
2
 0.9999 0.0001
2
 1 1e-08
2
 0.9999 0.0001
2
 0.9995 0.0005
2
 0.99994 6e-05
2
 1 1e-08
2
 0.99991 9e-05
2
 0.9999 0.0001
2
 0.99991 9e-05
2
 0.9999 0.0001
2
 0.99987 0.00013
2
 0.99999 1e-05
2
 1 1e-08
2
 0.9999 0.0001
2
 0.99995 5e-05
2
 1 9e-08
2
 1 1.1e-07
2
 0.9995 0.0005
2
 1 2.9e-07
2
 1 6e-08
2
 0.999992 7.67e-06
2
 0.99994 6e-05
2
 0.999994 6e-06
2
 0.9999 0.0001
2
 0.9998 0.0002
2
 0.99989 0.00011
2
 0.999999 1e-06
2
 0.9999 0.0001
2
 0.99997 3e-05
2
 0.99997 3e-05
2
 0.999555 0.00044466
2
 0.999999 1e-06
2
 0.999998 2.143e-06
2
 0.999999 1e-06
2
 0.99991 9e-05
2
 1 5e-07
2
 0.99998 2e-05
2
 1 1e-08
2
 0.99989 0.00011
2
 1 1e-08
2
 0.9999 0.0001
2
 0.9996 0.0004
2
 0.99995 5e-05
2
 0.9999 0.0001
2
 1 1e-08
2
 0.9999 0.0001
2
 1 1.1e-07
2
 0.99997 3e-05
2
 0.9999 0.0001
2
 0.99997 3e-05
2
 0.99999 1e-05
2
 0.99996 4e-05
2
 0.9999 0.0001
2
 0.9999 0.0001
2
 0.999585 0.000415
2
 0.999991 9.42e-06
2
 0.999999 1e-06
2
 0.9998 0.0002
2
 0.9999 0.0001
2
 0.9999 0.0001
2
 0.99993 7e-05
2
 0.9996 0.0004
2
 0.9995 0.0005
2
 0.99995 5e-05
2
 0.99991 9e-05
2
 0.9999 0.0001
2
 1 3.3e-07
2
 0.9999 0.0001
2
 0.9999 0.0001
2
 0.999999 8.1e-07
2
 0.9998 0.0002
2
 0.9999 0.0001
2
 0.99999 1e-05
2
 0.99995 5e-05
2
 0.99999 1e-05
2
 0.99989 0.00011
2
 0.9999 0.0001
2
 0.9999 0.0001
2
 0.99975 0.00025
2
 0.9995 0.0005
2
 0.99995 5e-05
2
 0.999999 1e-06
2
 0.9999 0.0001
2
 0.9997 0.0003
2
 0.9999 0.0001
2
 0.99999 9.61e-06
2
 0.9999 0.0001
2
 0.99999 1e-05
2
 0.9999 0.0001
2
 0.99995 5e-05
2
 0.998 0.002
2
 0.999998 2e-06
2
 0.999999 1e-06
2
 0.99989 0.00011
2
 0.99995 5e-05
2
 0.9999 0.0001
2
 0.99974 0.00026
2
 0.999964 3.587e-05
2
 0.99996 4e-05
2
 0.999995 5.24e-06
2
 0.9999 0.0001
2
 0.99981 0.00019
2
 0.9999 0.0001
2
 1 1e-08
2
 1 1.2e-07
2
 1 1.7e-07
2
 0.999998 2e-06
2
 0.9999 0.0001
2
 0.999996 3.57e-06
2
 1 1.1e-07
2
 0.99999 1e-05
2
 1 6e-08
2
 0.99996 4e-05
2
 0.9999 0.0001
2
 0.99995 5e-05
2
 0.999973 2.7e-05
2
 0.99999 1e-05
2
 0.9999 0.0001
2
 0.99999 1e-05
2
 0.999999 6e-07
2
 0.99982 0.00018
2
 1 1e-08
2
 0.99985 0.00015
2
 0.9999 0.0001
2
 1 2e-08
2
 0.99995 5e-05
2
 0.9998 0.0002
2
 0.9999 0.0001
2
 0.9998 0.0002
2
 0.9995 0.0005
2
 0.9999 0.0001
2
 0.99999 1e-05
2
 0.9995 0.0005
2
 0.99922 0.00078
2
 0.9998 0.0002
2
 0.99925 0.00075
2
 0.99995 5e-05
2
 0.9999 0.0001
2
 0.99998 2e-05
2
 0.9998 0.0002
2
 0.9994 0.0006
2
 0.99999 1e-05
2
 0.9999 0.0001
2
 0.9995 0.0005
2
 0.99999 1e-05
2
 0.999999 1e-06
2
 0.99995 5e-05
2
 1 7e-08
2
 0.9995 0.0005
2
 0.99984 0.00016
2
 0.999999 1e-06
2
 0.99989 0.00011
2
 0.9996 0.0004
2
 0.99997 3e-05
2
 0.999 0.001
2
 0.9994 0.0006
2
 0.998 0.002
2
 0.9999 0.0001
2
 0.999998 2e-06
2
 1 4e-08
2
 0.9999 0.0001
2
 0.99995 5e-05
2
 0.99998 2e-05
2
 0.99984 0.00016
2
 0.9995 0.0005
2
 0.9999 0.0001
2
 0.9982 0.0018
2
 0.999998 2.24e-06
2
 0.99985 0.00015
2
 0.99996 4e-05
2
 0.9999 0.0001
2
 0.999999 1e-06
2
 0.999838 0.0001616
2
 0.99995 5e-05
2
 0.9999 0.0001
2
 1 1e-08
2
 0.9996 0.0004
2
 0.99995 5e-05
2
 1 2.3e-07
2
 0.99994 6e-05
2
 0.9999 0.0001
2
 0.999979 2.06e-05
2
 0.999999 6.2e-07
2
 0.99995 5e-05
2
 0.9999 0.0001
2
 0.99998 2e-05
2
 1 1.2e-07
2
 0.99985 0.00015
2
 0.9997 0.0003
2
 0.99998 2e-05
2
 0.999997 2.82e-06
2
 0.99999 1e-05
2
 0.9999 0.0001
2
 0.9999 0.0001
2
 1 2e-08
2
 0.9994 0.0006
2
 0.9995 0.0005
2
 0.9999 0.0001
2
 0.999907 9.332e-05
2
 0.999998 2e-06
2
 0.9994 0.0006
2
 1 1e-08
2
 0.999993 6.69e-06
2
 0.9999 0.0001
2
 0.999999 5.4e-07
2
 0.999999 1e-06
2
 0.99995 5e-05
2
 1 4e-08
2
 0.999992 8e-06
2
 0.999915 8.54e-05
2
 0.99975 0.00025
2
 0.9999 0.0001
2
 0.99882 0.00118
2
 0.99999 1e-05
2
 0.9999 0.0001
2
 1 1.1e-07
2
 0.99985 0.00015
2
 0.9999 0.0001
2
 0.999994 6.39e-06
2
 0.99999 1e-05
2
 0.99999 1e-05
2
 0.999 0.001
2
 0.999722 0.0002777
2
 0.99997 3e-05
2
 0.9985 0.0015
2
 0.99995 5e-05
2
 0.9997 0.0003
2
 0.9999 0.0001
2
 0.9999 0.0001
2
 0.9999 0.0001
2
 1 1e-08
2
 0.9999 0.0001
2
 0.99992 8e-05
2
 0.9999 0.0001
2
 0.9995 0.0005
2
 0.9999 0.0001
2
 0.9999 0.0001
2
 0.9999 0.0001
2
 0.99875 0.00125
2
 0.999999 1e-06
2
 0.9999 0.0001
2
 0.99997 3e-05
2
 0.9999 0.0001
2
 1 1.1e-07
2
 1 4e-08
2
 0.99997 3e-05
2
 1 5e-08
2
 0.99999 1e-05
2
 0.99997 3e-05
2
 1 2.3e-07
2
 0.99998 2e-05
2
 0.9999 0.0001
2
 0.99998 2e-05
2
 1 5e-07
1
 1

